c clasp version 2.1.1
c Reading from p52.cnf
c Solving...
s SATISFIABLE

c Models        : 1+    
c Time          : 1.924s (Solving: 0.33s 1st Model: 0.33s Unsat: 0.00s)
c CPU Time      : 1.920s
c Choices       : 11702
c Conflicts     : 869
c Restarts      : 2      (Average: 434.50 Last: 40)

c Variables     : 225262 (Eliminated: 70369 Frozen:    0)
c Constraints   : 258932 (Binary: 64.5% Ternary: 34.2% Other:  1.2%)
c Lemmas        : 869    (Binary:  0.2% Ternary:  3.8% Other: 96.0%)
c   Conflict    : 869    (Average Length: 43.4) 
c   Loop        : 0      (Average Length: 0.0) 
c   Other       : 0      (Average Length: 0.0)
c   Deleted     : 0     
